WARNING: for repeatability, setting FPU to use double precision
============================[ Problem Statistics ]=============================
|                                                                             |
|  Number of variables:           100                                         |
|  Number of clauses:             449                                         |
|  Parse time:                   0.00 s                                       |
|  Eliminated clauses:           0.00 Mb                                      |
|  Simplification time:          0.00 s                                       |
|                                                                             |
============================[ Search Statistics ]==============================
| Conflicts |          ORIGINAL         |          LEARNT          | Progress |
|           |    Vars  Clauses Literals |    Limit  Clauses Lit/Cl |          |
===============================================================================
|       100 |      95      428     1304 |      156      100      6 |  0.011 % |
|       250 |      94      416     1267 |      172       62      5 |  1.160 % |
===============================================================================
restarts              : 3
conflicts             : 272            (inf /sec)
decisions             : 352            (0.00 % random) (inf /sec)
propagations          : 6120           (inf /sec)
conflict literals     : 1518           (23.49 % deleted)
Memory used           : 13.00 MB
CPU time              : 0 s

SATISFIABLE
